NAME : portcgen-19-24
COMMENT : portcgen N=19, seed=24
TYPE : TSP
DIMENSION : 19
EDGE_WEIGHT_TYPE : EUC_2D
NODE_COORD_SECTION
1 -212938 276196
2 277187 112706
3 -183855 53439
4 738349 -51780
5 -73422 67210
6 -80684 275261
7 27407 157169
8 155567 -63072
9 85574 255247
10 26922 258978
11 -130493 -440706
12 184465 -343859
13 -170031 -118328
14 187963 268339
15 -211863 -11382
16 -14534 117532
17 42662 332046
18 99201 -496285
19 307673 -17491
